spring_18/ind_study/IWLS18/exps/ets18_exps/tianka_ckt/exp_2/it_2/tianka.cnf
p cnf 44 115
-4 -1 -2 0
4 1 -2 0
4 -1 2 0
-4 1 2 0
-5 2 3 0
5 -2 0
5 -3 0
-6 -3 -3 0
6 3 0
6 3 0
7 -5 -3 0
-7 5 0
-7 3 0
-8 4 7 0
8 -4 0
8 -7 0
-9 -7 -6 0
9 7 -6 0
9 -7 6 0
-9 7 6 0
10 -8 -9 0
-10 8 0
-10 9 0
1 -37 11 0
1 37 -11 0
-1 -38 11 0
-1 38 -11 0
1 -39 12 0
1 39 -12 0
-1 -40 12 0
-1 40 -12 0
1 -41 13 0
1 41 -13 0
-1 -42 13 0
-1 42 -13 0
1 -43 14 0
1 43 -14 0
-1 -44 14 0
-1 44 -14 0
2 -11 15 0
2 11 -15 0
-2 -12 15 0
-2 12 -15 0
2 -13 16 0
2 13 -16 0
-2 -14 16 0
-2 14 -16 0
3 -15 17 0
3 15 -17 0
-3 -16 17 0
-3 16 -17 0
-18 -10 -17 0
18 10 -17 0
18 -10 17 0
-18 10 17 0
-22 -19 -20 0
22 19 -20 0
22 -19 20 0
-22 19 20 0
-23 20 21 0
23 -20 0
23 -21 0
-24 -21 -21 0
24 21 0
24 21 0
25 -23 -21 0
-25 23 0
-25 21 0
-26 22 25 0
26 -22 0
26 -25 0
-27 -25 -24 0
27 25 -24 0
27 -25 24 0
-27 25 24 0
28 -26 -27 0
-28 26 0
-28 27 0
19 -37 29 0
19 37 -29 0
-19 -38 29 0
-19 38 -29 0
19 -39 30 0
19 39 -30 0
-19 -40 30 0
-19 40 -30 0
19 -41 31 0
19 41 -31 0
-19 -42 31 0
-19 42 -31 0
19 -43 32 0
19 43 -32 0
-19 -44 32 0
-19 44 -32 0
20 -29 33 0
20 29 -33 0
-20 -30 33 0
-20 30 -33 0
20 -31 34 0
20 31 -34 0
-20 -32 34 0
-20 32 -34 0
21 -33 35 0
21 33 -35 0
-21 -34 35 0
-21 34 -35 0
-36 -28 -35 0
36 28 -35 0
36 -28 35 0
-36 28 35 0
18 0
-36 0
-19 0
-20 0
21 0
